sat
(= |goto_symex::&92;guard#1| true)
(= |goto_symex::&92;guard#2| false)
(= |memory_model::choice_rf_1_38_0_11_T_0| false)
(= |memory_model::choice_rf_1_38_2_18_T_1| false)
(= |memory_model::choice_rf_1_38_3_17_T_2| false)
(= |memory_model::choice_rf_1_38_4_35_T_3| true)
(= |memory_model::choice_rf_2_17_0_11_T_4| false)
(= |memory_model::choice_rf_2_17_1_39_T_5| false)
(= |memory_model::choice_rf_2_17_3_17_T_6| false)
(= |memory_model::choice_rf_2_17_4_35_T_7| true)
(= |memory_model::choice_rf_3_16_0_11_T_8| false)
(= |memory_model::choice_rf_3_16_1_39_T_9| false)
(= |memory_model::choice_rf_3_16_2_18_T_10| false)
(= |memory_model::choice_rf_3_16_4_35_T_11| true)
(= |memory_model::choice_rf_4_34_0_11_T_12| true)
(= |memory_model::choice_rf_4_34_1_39_T_13| false)
(= |memory_model::choice_rf_4_34_2_18_T_14| false)
(= |memory_model::choice_rf_4_34_3_17_T_15| false)
(= |memory_model::choice_rf_0_46_0_9_T_16| false)
(= |memory_model::choice_rf_0_46_0_42_T_17| true)
(= |memory_model::choice_rf_0_51_0_9_T_18| false)
(= |memory_model::choice_rf_0_51_0_42_T_19| false)
(= |memory_model::choice_rf_0_51_0_47_T_20| true)
(= |memory_model::choice_rf_0_56_0_9_T_21| false)
(= |memory_model::choice_rf_0_56_0_42_T_22| false)
(= |memory_model::choice_rf_0_56_0_47_T_23| false)
(= |memory_model::choice_rf_0_56_0_52_T_24| true)
(= |memory_model::choice_rf_0_79_0_38_F_25| false)
(= |memory_model::choice_rf_0_79_1_23_F_26| false)
(= |memory_model::choice_rf_0_79_2_0_F_27| true)
(= |memory_model::choice_rf_1_22_0_38_F_28| false)
(= |memory_model::choice_rf_1_22_2_0_F_29| false)
(= |memory_model::choice_rf_0_60_0_12_F_30| false)
(= |memory_model::choice_rf_0_60_1_37_F_31| false)
(= |memory_model::choice_rf_0_60_2_16_F_32| true)
(= |memory_model::choice_rf_0_60_3_15_F_33| false)
(= |memory_model::choice_rf_0_60_4_33_F_34| false)
(= |memory_model::choice_rf_1_36_0_12_F_35| false)
(= |memory_model::choice_rf_1_36_2_16_F_36| false)
(= |memory_model::choice_rf_1_36_3_15_F_37| false)
(= |memory_model::choice_rf_1_36_4_33_F_38| true)
(= |memory_model::choice_rf_2_15_0_12_F_39| false)
(= |memory_model::choice_rf_2_15_1_37_F_40| false)
(= |memory_model::choice_rf_2_15_3_15_F_41| true)
(= |memory_model::choice_rf_2_15_4_33_F_42| false)
(= |memory_model::choice_rf_3_14_0_12_F_43| false)
(= |memory_model::choice_rf_3_14_1_37_F_44| true)
(= |memory_model::choice_rf_3_14_2_16_F_45| false)
(= |memory_model::choice_rf_3_14_4_33_F_46| false)
(= |memory_model::choice_rf_4_32_0_12_F_47| true)
(= |memory_model::choice_rf_4_32_1_37_F_48| false)
(= |memory_model::choice_rf_4_32_2_16_F_49| false)
(= |memory_model::choice_rf_4_32_3_15_F_50| false)
(= |memory_model::choice_rf_0_77_0_13_F_51| false)
(= |memory_model::choice_rf_0_77_2_2_F_52| true)
(= |memory_model::choice_rf_0_76_0_14_F_53| false)
(= |memory_model::choice_rf_0_76_4_14_F_54| true)
(= |memory_model::choice_rf_0_63_0_15_F_55| false)
(= |memory_model::choice_rf_0_63_1_35_F_56| true)
(= |memory_model::choice_rf_0_63_2_14_F_57| false)
(= |memory_model::choice_rf_0_63_3_13_F_58| false)
(= |memory_model::choice_rf_0_63_4_15_F_59| false)
(= |memory_model::choice_rf_0_63_4_31_F_60| false)
(= |memory_model::choice_rf_1_24_0_15_F_61| false)
(= |memory_model::choice_rf_1_24_0_74_F_62| false)
(= |memory_model::choice_rf_1_24_2_14_F_63| false)
(= |memory_model::choice_rf_1_24_3_13_F_64| false)
(= |memory_model::choice_rf_1_24_4_15_F_65| false)
(= |memory_model::choice_rf_1_24_4_31_F_66| true)
(= |memory_model::choice_rf_2_3_0_15_F_67| true)
(= |memory_model::choice_rf_2_3_0_74_F_68| false)
(= |memory_model::choice_rf_2_3_1_35_F_69| false)
(= |memory_model::choice_rf_2_3_3_13_F_70| false)
(= |memory_model::choice_rf_2_3_4_15_F_71| false)
(= |memory_model::choice_rf_2_3_4_31_F_72| false)
(= |memory_model::choice_rf_3_2_0_15_F_73| false)
(= |memory_model::choice_rf_3_2_0_74_F_74| false)
(= |memory_model::choice_rf_3_2_1_35_F_75| false)
(= |memory_model::choice_rf_3_2_2_14_F_76| true)
(= |memory_model::choice_rf_3_2_4_15_F_77| false)
(= |memory_model::choice_rf_3_2_4_31_F_78| false)
(= |memory_model::choice_rf_4_7_0_15_F_79| false)
(= |memory_model::choice_rf_4_7_0_74_F_80| false)
(= |memory_model::choice_rf_4_7_1_35_F_81| false)
(= |memory_model::choice_rf_4_7_2_14_F_82| false)
(= |memory_model::choice_rf_4_7_3_13_F_83| true)
(= |memory_model::choice_rf_4_20_0_15_F_84| false)
(= |memory_model::choice_rf_4_20_0_74_F_85| false)
(= |memory_model::choice_rf_4_20_1_35_F_86| false)
(= |memory_model::choice_rf_4_20_2_14_F_87| false)
(= |memory_model::choice_rf_4_20_3_13_F_88| false)
(= |memory_model::choice_rf_4_20_4_15_F_89| true)
(= |memory_model::choice_rf_0_68_0_18_F_90| true)
(= |memory_model::choice_rf_1_7_0_18_F_91| true)
(= |memory_model::choice_rf_1_7_0_71_F_92| false)
(= |memory_model::choice_rf_1_5_0_19_F_93| true)
(= |memory_model::choice_rf_1_29_0_19_F_94| false)
(= |memory_model::choice_rf_1_29_1_14_F_95| true)
(= |memory_model::choice_rf_1_1_0_20_F_96| true)
(= |memory_model::choice_rf_1_1_2_11_F_97| false)
(= |memory_model::choice_rf_2_8_0_20_F_98| true)
(= |memory_model::choice_rf_1_0_0_21_F_99| true)
(= |memory_model::choice_rf_1_0_3_9_F_100| false)
(= |memory_model::choice_rf_3_6_0_21_F_101| true)
(= |memory_model::choice_rf_1_4_0_22_F_102| true)
(= |memory_model::choice_rf_1_4_4_8_F_103| false)
(= |memory_model::choice_rf_1_4_4_27_F_104| false)
(= |memory_model::choice_rf_4_4_0_22_F_105| true)
(= |memory_model::choice_rf_4_24_0_22_F_106| false)
(= |memory_model::choice_rf_4_24_4_8_F_107| true)
(= |memory_model::choice_rf_0_67_0_23_F_108| false)
(= |memory_model::choice_rf_0_67_1_15_F_109| true)
(= |memory_model::choice_rf_1_6_0_23_F_110| false)
(= |memory_model::choice_rf_1_6_0_70_F_111| false)
(= |memory_model::choice_rf_1_3_0_24_F_112| false)
(= |memory_model::choice_rf_1_26_0_24_F_113| false)
(= |memory_model::choice_rf_1_26_1_13_F_114| true)
(= |memory_model::choice_rf_1_2_0_25_F_115| false)
(= |memory_model::choice_rf_1_2_2_10_F_116| false)
(= |memory_model::choice_rf_2_5_0_25_F_117| false)
(= |memory_model::choice_rf_2_5_1_12_F_118| true)
(= |memory_model::choice_rf_1_9_0_26_F_119| false)
(= |memory_model::choice_rf_1_9_3_11_F_120| false)
(= |memory_model::choice_rf_3_7_0_26_F_121| false)
(= |memory_model::choice_rf_3_7_1_17_F_122| true)
(= |memory_model::choice_rf_1_8_0_27_F_123| false)
(= |memory_model::choice_rf_1_8_4_10_F_124| false)
(= |memory_model::choice_rf_1_8_4_29_F_125| false)
(= |memory_model::choice_rf_4_5_0_27_F_126| false)
(= |memory_model::choice_rf_4_5_1_16_F_127| true)
(= |memory_model::choice_rf_4_25_0_27_F_128| false)
(= |memory_model::choice_rf_4_25_1_16_F_129| false)
(= |memory_model::choice_rf_4_25_4_10_F_130| true)
(= |memory_model::choice_rf_0_66_0_30_F_131| false)
(= |memory_model::choice_rf_0_66_1_20_F_132| false)
(= |memory_model::choice_rf_0_66_4_13_F_133| true)
(= |memory_model::choice_rf_1_11_0_30_F_134| true)
(= |memory_model::choice_rf_1_11_4_13_F_135| false)
(= |memory_model::choice_rf_1_28_0_30_F_136| false)
(= |memory_model::choice_rf_1_28_1_20_F_137| false)
(= |memory_model::choice_rf_1_28_4_13_F_138| true)
(= |memory_model::choice_rf_2_7_0_30_F_139| false)
(= |memory_model::choice_rf_2_7_1_20_F_140| true)
(= |memory_model::choice_rf_2_7_4_13_F_141| false)
(= |memory_model::choice_rf_3_5_0_30_F_142| false)
(= |memory_model::choice_rf_3_5_1_20_F_143| true)
(= |memory_model::choice_rf_3_5_4_13_F_144| false)
(= |memory_model::choice_rf_4_2_0_30_F_145| false)
(= |memory_model::choice_rf_4_2_1_20_F_146| true)
(= |memory_model::choice_rf_4_23_0_30_F_147| false)
(= |memory_model::choice_rf_4_23_1_20_F_148| false)
(= |memory_model::choice_rf_4_23_4_13_F_149| true)
(= |memory_model::choice_rf_0_69_0_31_F_150| false)
(= |memory_model::choice_rf_0_69_1_18_F_151| false)
(= |memory_model::choice_rf_0_69_1_34_F_152| true)
(= |memory_model::choice_rf_0_69_2_13_F_153| false)
(= |memory_model::choice_rf_0_69_3_12_F_154| false)
(= |memory_model::choice_rf_0_69_4_11_F_155| false)
(= |memory_model::choice_rf_0_69_4_30_F_156| false)
(= |memory_model::choice_rf_1_10_0_31_F_157| true)
(= |memory_model::choice_rf_1_10_0_73_F_158| false)
(= |memory_model::choice_rf_1_10_2_13_F_159| false)
(= |memory_model::choice_rf_1_10_3_12_F_160| false)
(= |memory_model::choice_rf_1_10_4_11_F_161| false)
(= |memory_model::choice_rf_1_10_4_30_F_162| false)
(= |memory_model::choice_rf_1_30_0_31_F_163| false)
(= |memory_model::choice_rf_1_30_0_73_F_164| false)
(= |memory_model::choice_rf_1_30_1_18_F_165| false)
(= |memory_model::choice_rf_1_30_2_13_F_166| false)
(= |memory_model::choice_rf_1_30_3_12_F_167| false)
(= |memory_model::choice_rf_1_30_4_11_F_168| false)
(= |memory_model::choice_rf_1_30_4_30_F_169| true)
(= |memory_model::choice_rf_2_9_0_31_F_170| false)
(= |memory_model::choice_rf_2_9_0_73_F_171| false)
(= |memory_model::choice_rf_2_9_1_18_F_172| true)
(= |memory_model::choice_rf_2_9_1_34_F_173| false)
(= |memory_model::choice_rf_2_9_3_12_F_174| false)
(= |memory_model::choice_rf_2_9_4_11_F_175| false)
(= |memory_model::choice_rf_2_9_4_30_F_176| false)
(= |memory_model::choice_rf_3_8_0_31_F_177| false)
(= |memory_model::choice_rf_3_8_0_73_F_178| false)
(= |memory_model::choice_rf_3_8_1_18_F_179| false)
(= |memory_model::choice_rf_3_8_1_34_F_180| false)
(= |memory_model::choice_rf_3_8_2_13_F_181| true)
(= |memory_model::choice_rf_3_8_4_11_F_182| false)
(= |memory_model::choice_rf_3_8_4_30_F_183| false)
(= |memory_model::choice_rf_4_6_0_31_F_184| false)
(= |memory_model::choice_rf_4_6_0_73_F_185| false)
(= |memory_model::choice_rf_4_6_1_18_F_186| false)
(= |memory_model::choice_rf_4_6_1_34_F_187| false)
(= |memory_model::choice_rf_4_6_2_13_F_188| false)
(= |memory_model::choice_rf_4_6_3_12_F_189| true)
(= |memory_model::choice_rf_4_26_0_31_F_190| false)
(= |memory_model::choice_rf_4_26_0_73_F_191| false)
(= |memory_model::choice_rf_4_26_1_18_F_192| false)
(= |memory_model::choice_rf_4_26_1_34_F_193| false)
(= |memory_model::choice_rf_4_26_2_13_F_194| false)
(= |memory_model::choice_rf_4_26_3_12_F_195| false)
(= |memory_model::choice_rf_4_26_4_11_F_196| true)
(= |memory_model::choice_rf_0_64_0_32_F_197| false)
(= |memory_model::choice_rf_0_64_1_21_F_198| false)
(= |memory_model::choice_rf_0_64_4_12_F_199| true)
(= |memory_model::choice_rf_1_25_0_32_F_200| false)
(= |memory_model::choice_rf_1_25_1_21_F_201| false)
(= |memory_model::choice_rf_1_25_4_12_F_202| true)
(= |memory_model::choice_rf_2_4_0_32_F_203| false)
(= |memory_model::choice_rf_2_4_1_21_F_204| true)
(= |memory_model::choice_rf_2_4_4_12_F_205| false)
(= |memory_model::choice_rf_3_3_0_32_F_206| false)
(= |memory_model::choice_rf_3_3_1_21_F_207| true)
(= |memory_model::choice_rf_3_3_4_12_F_208| false)
(= |memory_model::choice_rf_4_1_0_32_F_209| false)
(= |memory_model::choice_rf_4_1_1_21_F_210| true)
(= |memory_model::choice_rf_4_21_0_32_F_211| false)
(= |memory_model::choice_rf_4_21_1_21_F_212| false)
(= |memory_model::choice_rf_4_21_4_12_F_213| true)
(= |memory_model::choice_rf_0_65_0_33_F_214| false)
(= |memory_model::choice_rf_0_65_1_19_F_215| false)
(= |memory_model::choice_rf_0_65_1_33_F_216| true)
(= |memory_model::choice_rf_0_65_2_12_F_217| false)
(= |memory_model::choice_rf_0_65_3_10_F_218| false)
(= |memory_model::choice_rf_0_65_4_9_F_219| false)
(= |memory_model::choice_rf_0_65_4_28_F_220| false)
(= |memory_model::choice_rf_1_27_0_33_F_221| false)
(= |memory_model::choice_rf_1_27_0_72_F_222| false)
(= |memory_model::choice_rf_1_27_1_19_F_223| false)
(= |memory_model::choice_rf_1_27_2_12_F_224| false)
(= |memory_model::choice_rf_1_27_3_10_F_225| false)
(= |memory_model::choice_rf_1_27_4_9_F_226| false)
(= |memory_model::choice_rf_1_27_4_28_F_227| true)
(= |memory_model::choice_rf_2_6_0_33_F_228| false)
(= |memory_model::choice_rf_2_6_0_72_F_229| false)
(= |memory_model::choice_rf_2_6_1_19_F_230| true)
(= |memory_model::choice_rf_2_6_1_33_F_231| false)
(= |memory_model::choice_rf_2_6_3_10_F_232| false)
(= |memory_model::choice_rf_2_6_4_9_F_233| false)
(= |memory_model::choice_rf_2_6_4_28_F_234| false)
(= |memory_model::choice_rf_3_4_0_33_F_235| false)
(= |memory_model::choice_rf_3_4_0_72_F_236| false)
(= |memory_model::choice_rf_3_4_1_19_F_237| false)
(= |memory_model::choice_rf_3_4_1_33_F_238| false)
(= |memory_model::choice_rf_3_4_2_12_F_239| true)
(= |memory_model::choice_rf_3_4_4_9_F_240| false)
(= |memory_model::choice_rf_3_4_4_28_F_241| false)
(= |memory_model::choice_rf_4_3_0_33_F_242| false)
(= |memory_model::choice_rf_4_3_0_72_F_243| false)
(= |memory_model::choice_rf_4_3_1_19_F_244| false)
(= |memory_model::choice_rf_4_3_1_33_F_245| false)
(= |memory_model::choice_rf_4_3_2_12_F_246| false)
(= |memory_model::choice_rf_4_3_3_10_F_247| true)
(= |memory_model::choice_rf_4_22_0_33_F_248| false)
(= |memory_model::choice_rf_4_22_0_72_F_249| false)
(= |memory_model::choice_rf_4_22_1_19_F_250| false)
(= |memory_model::choice_rf_4_22_1_33_F_251| false)
(= |memory_model::choice_rf_4_22_2_12_F_252| false)
(= |memory_model::choice_rf_4_22_3_10_F_253| false)
(= |memory_model::choice_rf_4_22_4_9_F_254| true)
(= |memory_model::choice_rf_0_62_0_34_F_255| false)
(= |memory_model::choice_rf_0_62_0_61_F_256| true)
(= |memory_model::choice_rf_0_75_0_35_F_257| false)
(= |memory_model::choice_rf_0_81_0_35_F_258| false)
(= |memory_model::choice_rf_0_81_0_80_F_259| true)
(= |memory_model::choice_rf_0_82_0_35_F_260| false)
(= |memory_model::choice_rf_0_82_0_80_F_261| true)
(= |memory_model::choice_rf_2_1_0_39_F_262| true)
(= |memory_model::choice_rf_2_1_3_0_F_263| false)
(= |memory_model::choice_rf_0_78_0_40_F_264| false)
(= |memory_model::choice_rf_0_78_3_1_F_265| false)
(= |memory_model::choice_rf_0_78_4_0_F_266| true)
(= |memory_model::choice_ws-ext_0_11_1_39_T_267| true)
(= |memory_model::choice_ws-ext_0_11_2_18_T_268| true)
(= |memory_model::choice_ws-ext_0_11_3_17_T_269| true)
(= |memory_model::choice_ws-ext_0_11_4_35_T_270| true)
(= |memory_model::choice_ws-ext_1_39_2_18_T_271| true)
(= |memory_model::choice_ws-ext_1_39_3_17_T_272| true)
(= |memory_model::choice_ws-ext_1_39_4_35_T_273| false)
(= |memory_model::choice_ws-ext_2_18_3_17_T_274| false)
(= |memory_model::choice_ws-ext_2_18_4_35_T_275| false)
(= |memory_model::choice_ws-ext_3_17_4_35_T_276| false)
(= |memory_model::choice_ws-ext_0_38_1_23_F_277| true)
(= |memory_model::choice_ws-ext_0_38_2_0_F_278| true)
(= |memory_model::choice_ws-ext_1_23_2_0_F_279| true)
(= |memory_model::choice_ws-ext_0_12_1_37_F_280| true)
(= |memory_model::choice_ws-ext_0_12_2_16_F_281| true)
(= |memory_model::choice_ws-ext_0_12_3_15_F_282| true)
(= |memory_model::choice_ws-ext_0_12_4_33_F_283| true)
(= |memory_model::choice_ws-ext_1_37_2_16_F_284| true)
(= |memory_model::choice_ws-ext_1_37_3_15_F_285| true)
(= |memory_model::choice_ws-ext_1_37_4_33_F_286| false)
(= |memory_model::choice_ws-ext_2_16_3_15_F_287| false)
(= |memory_model::choice_ws-ext_2_16_4_33_F_288| false)
(= |memory_model::choice_ws-ext_3_15_4_33_F_289| false)
(= |memory_model::choice_ws-ext_0_13_2_2_F_290| true)
(= |memory_model::choice_ws-ext_0_14_4_14_F_291| true)
(= |memory_model::choice_ws-ext_0_15_1_35_F_292| true)
(= |memory_model::choice_ws-ext_0_15_2_14_F_293| true)
(= |memory_model::choice_ws-ext_0_15_3_13_F_294| true)
(= |memory_model::choice_ws-ext_0_15_4_15_F_295| true)
(= |memory_model::choice_ws-ext_0_15_4_31_F_296| true)
(= |memory_model::choice_ws-ext_0_74_1_35_F_297| false)
(= |memory_model::choice_ws-ext_0_74_2_14_F_298| false)
(= |memory_model::choice_ws-ext_0_74_3_13_F_299| false)
(= |memory_model::choice_ws-ext_0_74_4_15_F_300| false)
(= |memory_model::choice_ws-ext_0_74_4_31_F_301| false)
(= |memory_model::choice_ws-ext_1_35_2_14_F_302| false)
(= |memory_model::choice_ws-ext_1_35_3_13_F_303| false)
(= |memory_model::choice_ws-ext_1_35_4_15_F_304| false)
(= |memory_model::choice_ws-ext_1_35_4_31_F_305| false)
(= |memory_model::choice_ws-ext_2_14_3_13_F_306| true)
(= |memory_model::choice_ws-ext_2_14_4_15_F_307| true)
(= |memory_model::choice_ws-ext_2_14_4_31_F_308| true)
(= |memory_model::choice_ws-ext_3_13_4_15_F_309| true)
(= |memory_model::choice_ws-ext_3_13_4_31_F_310| true)
(= |memory_model::choice_ws-ext_0_16_4_17_F_311| true)
(= |memory_model::choice_ws-ext_0_17_4_16_F_312| true)
(= |memory_model::choice_ws-ext_0_19_1_14_F_313| true)
(= |memory_model::choice_ws-ext_0_19_1_32_F_314| true)
(= |memory_model::choice_ws-ext_0_20_2_11_F_315| true)
(= |memory_model::choice_ws-ext_0_21_3_9_F_316| true)
(= |memory_model::choice_ws-ext_0_22_4_8_F_317| true)
(= |memory_model::choice_ws-ext_0_22_4_27_F_318| true)
(= |memory_model::choice_ws-ext_0_23_1_15_F_319| true)
(= |memory_model::choice_ws-ext_0_70_1_15_F_320| false)
(= |memory_model::choice_ws-ext_0_24_1_13_F_321| true)
(= |memory_model::choice_ws-ext_0_24_1_31_F_322| true)
(= |memory_model::choice_ws-ext_0_25_1_12_F_323| true)
(= |memory_model::choice_ws-ext_0_25_2_10_F_324| true)
(= |memory_model::choice_ws-ext_1_12_2_10_F_325| true)
(= |memory_model::choice_ws-ext_0_26_1_17_F_326| true)
(= |memory_model::choice_ws-ext_0_26_3_11_F_327| true)
(= |memory_model::choice_ws-ext_1_17_3_11_F_328| true)
(= |memory_model::choice_ws-ext_0_27_1_16_F_329| true)
(= |memory_model::choice_ws-ext_0_27_4_10_F_330| true)
(= |memory_model::choice_ws-ext_0_27_4_29_F_331| true)
(= |memory_model::choice_ws-ext_1_16_4_10_F_332| true)
(= |memory_model::choice_ws-ext_1_16_4_29_F_333| true)
(= |memory_model::choice_ws-ext_0_30_1_20_F_334| true)
(= |memory_model::choice_ws-ext_0_30_4_13_F_335| true)
(= |memory_model::choice_ws-ext_1_20_4_13_F_336| true)
(= |memory_model::choice_ws-ext_0_31_1_18_F_337| true)
(= |memory_model::choice_ws-ext_0_31_1_34_F_338| true)
(= |memory_model::choice_ws-ext_0_31_2_13_F_339| true)
(= |memory_model::choice_ws-ext_0_31_3_12_F_340| true)
(= |memory_model::choice_ws-ext_0_31_4_11_F_341| true)
(= |memory_model::choice_ws-ext_0_31_4_30_F_342| true)
(= |memory_model::choice_ws-ext_0_73_1_18_F_343| false)
(= |memory_model::choice_ws-ext_0_73_1_34_F_344| false)
(= |memory_model::choice_ws-ext_0_73_2_13_F_345| false)
(= |memory_model::choice_ws-ext_0_73_3_12_F_346| false)
(= |memory_model::choice_ws-ext_0_73_4_11_F_347| false)
(= |memory_model::choice_ws-ext_0_73_4_30_F_348| false)
(= |memory_model::choice_ws-ext_1_18_2_13_F_349| true)
(= |memory_model::choice_ws-ext_1_18_3_12_F_350| true)
(= |memory_model::choice_ws-ext_1_18_4_11_F_351| true)
(= |memory_model::choice_ws-ext_1_18_4_30_F_352| true)
(= |memory_model::choice_ws-ext_1_34_2_13_F_353| false)
(= |memory_model::choice_ws-ext_1_34_3_12_F_354| false)
(= |memory_model::choice_ws-ext_1_34_4_11_F_355| false)
(= |memory_model::choice_ws-ext_1_34_4_30_F_356| false)
(= |memory_model::choice_ws-ext_2_13_3_12_F_357| true)
(= |memory_model::choice_ws-ext_2_13_4_11_F_358| true)
(= |memory_model::choice_ws-ext_2_13_4_30_F_359| true)
(= |memory_model::choice_ws-ext_3_12_4_11_F_360| true)
(= |memory_model::choice_ws-ext_3_12_4_30_F_361| true)
(= |memory_model::choice_ws-ext_0_32_1_21_F_362| true)
(= |memory_model::choice_ws-ext_0_32_4_12_F_363| true)
(= |memory_model::choice_ws-ext_1_21_4_12_F_364| true)
(= |memory_model::choice_ws-ext_0_33_1_19_F_365| true)
(= |memory_model::choice_ws-ext_0_33_1_33_F_366| true)
(= |memory_model::choice_ws-ext_0_33_2_12_F_367| true)
(= |memory_model::choice_ws-ext_0_33_3_10_F_368| true)
(= |memory_model::choice_ws-ext_0_33_4_9_F_369| true)
(= |memory_model::choice_ws-ext_0_33_4_28_F_370| true)
(= |memory_model::choice_ws-ext_0_72_1_19_F_371| false)
(= |memory_model::choice_ws-ext_0_72_1_33_F_372| false)
(= |memory_model::choice_ws-ext_0_72_2_12_F_373| false)
(= |memory_model::choice_ws-ext_0_72_3_10_F_374| false)
(= |memory_model::choice_ws-ext_0_72_4_9_F_375| false)
(= |memory_model::choice_ws-ext_0_72_4_28_F_376| false)
(= |memory_model::choice_ws-ext_1_19_2_12_F_377| true)
(= |memory_model::choice_ws-ext_1_19_3_10_F_378| true)
(= |memory_model::choice_ws-ext_1_19_4_9_F_379| true)
(= |memory_model::choice_ws-ext_1_19_4_28_F_380| true)
(= |memory_model::choice_ws-ext_1_33_2_12_F_381| false)
(= |memory_model::choice_ws-ext_1_33_3_10_F_382| false)
(= |memory_model::choice_ws-ext_1_33_4_9_F_383| false)
(= |memory_model::choice_ws-ext_1_33_4_28_F_384| false)
(= |memory_model::choice_ws-ext_2_12_3_10_F_385| true)
(= |memory_model::choice_ws-ext_2_12_4_9_F_386| true)
(= |memory_model::choice_ws-ext_2_12_4_28_F_387| true)
(= |memory_model::choice_ws-ext_3_10_4_9_F_388| true)
(= |memory_model::choice_ws-ext_3_10_4_28_F_389| true)
(= |memory_model::choice_ws-ext_0_39_3_0_F_390| true)
(= |memory_model::choice_ws-ext_0_40_3_1_F_391| true)
(= |memory_model::choice_ws-ext_0_40_4_0_F_392| true)
(= |memory_model::choice_ws-ext_3_1_4_0_F_393| true)
(= |memory_model::choice_ws-ext_0_36_4_19_F_394| true)
(= |memory_model::choice_ws-ext_0_37_4_18_F_395| true)
(= |main$tmp_guard0#3| #b00000001)
(= |__CPROVER_next_thread_id#3| #b00000000000000000000000000000001)
(= |__CPROVER_next_thread_id#6| #b00000000000000000000000000000010)
(= |__CPROVER_next_thread_id#9| #b00000000000000000000000000000011)
(= |__unbuffered_cnt#2| #b00000000000000000000000000000100)
(= |a$w_buff0_used#2| #b00000000)
(= |a$r_buff0_thd0#2| #b00000000)
(= |a$w_buff0#2| #b00000000000000000000000000000001)
(= |a$w_buff1_used#2| #b00000000)
(= |a$r_buff1_thd0#2| #b00000000)
(= |a$w_buff1#2| #b00000000000000000000000000000000)
(= |a#2| #b00000000000000000000000000000001)
(= |a#4| #b00000000000000000000000000000001)
(= |a$w_buff0_used#6| #b00000000)
(= |a$w_buff1_used#6| #b00000000)
(= |a$r_buff0_thd0#8| #b00000000)
(= |a$r_buff1_thd0#7| #b00000000)
(= |x#2| #b00000000000000000000000000000010)
(= |z#2| #b00000000000000000000000000000010)
(= |__unbuffered_p1_EAX#2| #b00000000000000000000000000000000)
(= |__unbuffered_p3_EAX#2| #b00000000000000000000000000000000)
(= |main$tmp_guard1#2| #b00000000)
(= |main$tmp_guard1#3| #b00000000)
(= |main$tmp_guard1#6| #b00000000)
(= |pthread_create::1::this_thread_id!1@0#0| #b00000000000000000000000000000000)
(= |a$w_buff0#4| #b00000000000000000000000000000000)
(= |a$w_buff0_used#11| #b00000000)
(= |a$r_buff0_thd0#11| #b00000000)
(= |a$r_buff1_thd0#9| #b00000000)
(= |a$r_buff1_thd0#10| #b10000000)
(= |a$r_buff0_thd1#2| #b00000000)
(= |a$r_buff1_thd1#2| #b00000000)
(= |a$r_buff1_thd1#3| #b10000000)
(= |a$r_buff0_thd2#2| #b00000000)
(= |a$r_buff1_thd2#2| #b00000000)
(= |a$r_buff1_thd2#3| #b10000000)
(= |a$r_buff0_thd3#2| #b00000000)
(= |a$r_buff1_thd3#2| #b00000000)
(= |a$r_buff1_thd3#3| #b10000000)
(= |a$r_buff0_thd4#2| #b00000000)
(= |a$r_buff1_thd4#2| #b00000000)
(= |a$r_buff1_thd4#3| #b10000000)
(= |a$r_buff0_thd1#4| #b00000001)
(= |x#4| #b00000000000000000000000000000001)
(= |x#5| #b00000000000000000000000000000001)
(= |a$w_buff0_used#14| #b00000001)
(= |a$r_buff0_thd1#6| #b00000001)
(= |a$w_buff0#7| #b00000000000000000000000000000001)
(= |a$w_buff1_used#10| #b00000000)
(= |a$r_buff1_thd1#5| #b00000000)
(= |a$w_buff1#5| #b00000000000000000000000000000000)
(= |a#6| #b00000000000000000000000000000000)
(= |a#8| #b00000000000000000000000000000001)
(= |a$w_buff0_used#18| #b00000000)
(= |a$w_buff1_used#14| #b00000000)
(= |a$r_buff0_thd1#12| #b00000001)
(= |a$r_buff1_thd1#10| #b00000000)
(= |__unbuffered_cnt#4| #b00000000000000000000000000000001)
(= |__unbuffered_cnt#6| #b00000000000000000000000000000010)
(= |pthread_create::1::this_thread_id!2@0#0| #b00000000000000000000000000000000)
(= |y#2| #b00000000000000000000000000000000)
(= |a$w_buff0_used#23| #b00000001)
(= |a$r_buff0_thd2#4| #b00000000)
(= |a$w_buff0#9| #b00000000000000000000000000000001)
(= |a$w_buff1_used#17| #b00000000)
(= |a$r_buff1_thd2#5| #b00000000)
(= |a$w_buff1#7| #b00000000000000000000000000000000)
(= |a#10| #b00000000000000000000000000000000)
(= |__unbuffered_cnt#8| #b00000000000000000000000000000011)
(= |pthread_create::1::this_thread_id!3@0#0| #b10000000000000000000000000000000)
(= |a$w_buff0_used#26| #b00000001)
(= |a$r_buff0_thd3#4| #b00000000)
(= |a$w_buff0#11| #b00000000000000000000000000000001)
(= |a$w_buff1_used#20| #b00000000)
(= |a$r_buff1_thd3#5| #b00000000)
(= |a$w_buff1#9| #b00000000000000000000000000000000)
(= |a#13| #b00000000000000000000000000000000)
(= |__unbuffered_cnt#11| #b00000000000000000000000000000010)
(= |pthread_create::1::this_thread_id!4@0#0| #b01000000000000000000000000000000)
(= |nondet_symex::nondet4| #b00000000000000000000000000000000)
(= |a#16| #b00000000000000000000000000000000)
(= |a$w_buff0_used#29| #b00000001)
(= |a$r_buff0_thd4#4| #b00000000)
(= |a$w_buff1_used#23| #b00000000)
(= |a$r_buff1_thd4#5| #b00000000)
(= |a$w_buff0#13| #b00000000000000000000000000000001)
(= |a$w_buff1#11| #b00000000000000000000000000000000)
(= |a$w_buff0_used#32| #b00000001)
(= |a$r_buff0_thd4#7| #b00000000)
(= |a$w_buff0#16| #b00000000000000000000000000000001)
(= |a$w_buff1_used#26| #b00000000)
(= |a$r_buff1_thd4#8| #b00000000)
(= |a$w_buff1#14| #b00000000000000000000000000000000)
(= |a#20| #b00000000000000000000000000000000)
(= |__unbuffered_cnt#14| #b00000000000000000000000000000000)
(= |__CPROVER_threads_exited#1$wclk$8| #b01111111)
(= |__CPROVER_threads_exited#2$rclk$8| #b11110111)
(= |__CPROVER_threads_exited#5$wclk$8| #b11111111)
(= |__CPROVER_threads_exited#7$wclk$8| #b11111100)
(= |__CPROVER_threads_exited#9$wclk$8| #b11101111)
(= |__CPROVER_threads_exited#4$rclk$8| #b11110110)
(= |__CPROVER_threads_exited#3$wclk$8| #b11111011)
(= |__CPROVER_threads_exited#6$rclk$8| #b11110111)
(= |__CPROVER_threads_exited#8$rclk$8| #b11100111)
(= |x#6$wclk$8| #b11010011)
(= |x#2$rclk$8| #b11110111)
(= |x#7$wclk$8| #b11010100)
(= |x#1$wclk$8| #b10110000)
(= |x#5$rclk$8| #b11010011)
(= |__unbuffered_cnt#7$wclk$8| #b11100110)
(= |__unbuffered_cnt#2$rclk$8| #b11110011)
(= |__unbuffered_cnt#10$wclk$8| #b11110001)
(= |__unbuffered_cnt#13$wclk$8| #b11110000)
(= |__unbuffered_cnt#16$wclk$8| #b11100010)
(= |__unbuffered_cnt#1$wclk$8| #b10000000)
(= |__unbuffered_cnt#4$rclk$8| #b11100110)
(= |__unbuffered_cnt#8$rclk$8| #b11110001)
(= |__unbuffered_cnt#11$rclk$8| #b11110000)
(= |__unbuffered_cnt#14$rclk$8| #b11100010)
(= |__unbuffered_p1_EAX#4$wclk$8| #b11010101)
(= |__unbuffered_p1_EAX#2$rclk$8| #b11110111)
(= |__unbuffered_p3_EAX#4$wclk$8| #b11100000)
(= |__unbuffered_p3_EAX#2$rclk$8| #b11110111)
(= |a#9$wclk$8| #b11100010)
(= |a#2$rclk$8| #b11110110)
(= |a#12$wclk$8| #b11010110)
(= |a#15$wclk$8| #b11011001)
(= |a#19$wclk$8| #b11100000)
(= |a#22$wclk$8| #b11100001)
(= |a#1$wclk$8| #b10000011)
(= |a#6$rclk$8| #b11100010)
(= |a#5$wclk$8| #b11110110)
(= |a#10$rclk$8| #b11010110)
(= |a#13$rclk$8| #b11011001)
(= |a#16$rclk$8| #b11100000)
(= |a#20$rclk$8| #b11100001)
(= |a$r_buff0_thd0#1$wclk$8| #b10000110)
(= |a$r_buff0_thd0#11$rclk$8| #b11000010)
(= |a$r_buff0_thd0#10$wclk$8| #b11110110)
(= |a$r_buff0_thd1#1$wclk$8| #b10001011)
(= |a$r_buff0_thd1#2$rclk$8| #b11000010)
(= |a$r_buff0_thd1#6$rclk$8| #b11100010)
(= |a$r_buff0_thd2#1$wclk$8| #b10001100)
(= |a$r_buff0_thd2#2$rclk$8| #b11000010)
(= |a$r_buff0_thd2#6$wclk$8| #b11010110)
(= |a$r_buff0_thd2#4$rclk$8| #b11010110)
(= |a$r_buff0_thd3#1$wclk$8| #b10001101)
(= |a$r_buff0_thd3#2$rclk$8| #b11000010)
(= |a$r_buff0_thd3#6$wclk$8| #b11011001)
(= |a$r_buff0_thd3#4$rclk$8| #b11011001)
(= |a$r_buff0_thd4#1$wclk$8| #b10001110)
(= |a$r_buff0_thd4#2$rclk$8| #b11000010)
(= |a$r_buff0_thd4#6$wclk$8| #b11100000)
(= |a$r_buff0_thd4#9$wclk$8| #b11100001)
(= |a$r_buff0_thd4#4$rclk$8| #b11100000)
(= |a$r_buff0_thd4#7$rclk$8| #b11100001)
(= |a$r_buff1_thd0#11$wclk$8| #b11000010)
(= |a$r_buff1_thd0#2$rclk$8| #b11110110)
(= |a$r_buff1_thd0#1$wclk$8| #b10001111)
(= |a$r_buff1_thd0#10$rclk$8| #b11000010)
(= |a$r_buff1_thd0#8$wclk$8| #b11110110)
(= |a$r_buff1_thd1#1$wclk$8| #b10011000)
(= |a$r_buff1_thd1#3$rclk$8| #b11000010)
(= |a$r_buff1_thd1#5$rclk$8| #b11100010)
(= |a$r_buff1_thd2#1$wclk$8| #b10011001)
(= |a$r_buff1_thd2#3$rclk$8| #b11000010)
(= |a$r_buff1_thd2#7$wclk$8| #b11010110)
(= |a$r_buff1_thd2#5$rclk$8| #b11010110)
(= |a$r_buff1_thd2#4$wclk$8| #b11000010)
(= |a$r_buff1_thd3#1$wclk$8| #b10011010)
(= |a$r_buff1_thd3#3$rclk$8| #b11000010)
(= |a$r_buff1_thd3#7$wclk$8| #b11011001)
(= |a$r_buff1_thd3#5$rclk$8| #b11011001)
(= |a$r_buff1_thd3#4$wclk$8| #b11000010)
(= |a$r_buff1_thd4#1$wclk$8| #b10011100)
(= |a$r_buff1_thd4#3$rclk$8| #b11000010)
(= |a$r_buff1_thd4#7$wclk$8| #b11100000)
(= |a$r_buff1_thd4#10$wclk$8| #b11100001)
(= |a$r_buff1_thd4#5$rclk$8| #b11100000)
(= |a$r_buff1_thd4#4$wclk$8| #b11000010)
(= |a$r_buff1_thd4#8$rclk$8| #b11100001)
(= |a$w_buff0#6$wclk$8| #b11000010)
(= |a$w_buff0#2$rclk$8| #b11110110)
(= |a$w_buff0#15$wclk$8| #b11100000)
(= |a$w_buff0#1$wclk$8| #b10011111)
(= |a$w_buff0#4$rclk$8| #b11000010)
(= |a$w_buff0#7$rclk$8| #b11100010)
(= |a$w_buff0#9$rclk$8| #b11010110)
(= |a$w_buff0#11$rclk$8| #b11011001)
(= |a$w_buff0#13$rclk$8| #b11100000)
(= |a$w_buff0#16$rclk$8| #b11100001)
(= |a$w_buff0_used#13$wclk$8| #b11000010)
(= |a$w_buff0_used#2$rclk$8| #b11110110)
(= |a$w_buff0_used#22$wclk$8| #b11100010)
(= |a$w_buff0_used#25$wclk$8| #b11010110)
(= |a$w_buff0_used#28$wclk$8| #b11011001)
(= |a$w_buff0_used#31$wclk$8| #b11100000)
(= |a$w_buff0_used#34$wclk$8| #b11100001)
(= |a$w_buff0_used#1$wclk$8| #b10100111)
(= |a$w_buff0_used#11$rclk$8| #b11000010)
(= |a$w_buff0_used#10$wclk$8| #b11110110)
(= |a$w_buff0_used#14$rclk$8| #b11100010)
(= |a$w_buff0_used#23$rclk$8| #b11010110)
(= |a$w_buff0_used#26$rclk$8| #b11011001)
(= |a$w_buff0_used#29$rclk$8| #b11100000)
(= |a$w_buff0_used#32$rclk$8| #b11100001)
(= |a$w_buff1#4$wclk$8| #b11000010)
(= |a$w_buff1#2$rclk$8| #b11110110)
(= |a$w_buff1#13$wclk$8| #b11100000)
(= |a$w_buff1#1$wclk$8| #b10101000)
(= |a$w_buff1#5$rclk$8| #b11100010)
(= |a$w_buff1#7$rclk$8| #b11010110)
(= |a$w_buff1#9$rclk$8| #b11011001)
(= |a$w_buff1#11$rclk$8| #b11100000)
(= |a$w_buff1#14$rclk$8| #b11100001)
(= |a$w_buff1_used#9$wclk$8| #b11000010)
(= |a$w_buff1_used#2$rclk$8| #b11110110)
(= |a$w_buff1_used#16$wclk$8| #b11100010)
(= |a$w_buff1_used#19$wclk$8| #b11010110)
(= |a$w_buff1_used#22$wclk$8| #b11011001)
(= |a$w_buff1_used#25$wclk$8| #b11100000)
(= |a$w_buff1_used#28$wclk$8| #b11100001)
(= |a$w_buff1_used#1$wclk$8| #b10101001)
(= |a$w_buff1_used#10$rclk$8| #b11100010)
(= |a$w_buff1_used#8$wclk$8| #b11110110)
(= |a$w_buff1_used#17$rclk$8| #b11010110)
(= |a$w_buff1_used#20$rclk$8| #b11011001)
(= |a$w_buff1_used#23$rclk$8| #b11100000)
(= |a$w_buff1_used#26$rclk$8| #b11100001)
(= |main$tmp_guard1#5| #b00000000)
(= |y#1$wclk$8| #b10110001)
(= |y#2$rclk$8| #b11010101)
(= |y#4$wclk$8| #b11010110)
(= |z#4$wclk$8| #b11010111)
(= |z#2$rclk$8| #b11110111)
(= |z#5$wclk$8| #b11011111)
(= |__unbuffered_p1_EAX#1$wclk$8| #b10000001)
(= |__unbuffered_p3_EAX#1$wclk$8| #b10000010)
(= |a$flush_delayed#1$wclk$8| #b10000100)
(= |a$flush_delayed#3$wclk$8| #b11100000)
(= |a$mem_tmp#1$wclk$8| #b10000101)
(= |a$mem_tmp#2$wclk$8| #b11100000)
(= |a$r_buff0_thd1#5$wclk$8| #b11000010)
(= |a$r_buff0_thd1#14$wclk$8| #b11100010)
(= |a$r_buff1_thd1#4$wclk$8| #b11000010)
(= |a$r_buff1_thd1#11$wclk$8| #b11100010)
(= |z#1$wclk$8| #b10110010)
(= |weak$$choice0#1$wclk$8| #b10101101)
(= |weak$$choice0#2$wclk$8| #b11100000)
(= |weak$$choice2#1$wclk$8| #b10101110)
(= |weak$$choice2#2$wclk$8| #b11100000)
(= t1$44$spwnclk$8 #b10110110)
(= t1$49$spwnclk$8 #b11001010)
(= t1$54$spwnclk$8 #b11001110)
(= t1$59$spwnclk$8 #b11011110)
(= |main::1::t1476!0@1$wclk$8| #b00000000)
(= |main::1::t1477!0@1$wclk$8| #b01000000)
(= |main::1::t1478!0@1$wclk$8| #b01100000)
(= |__CPROVER_dead_object#1$wclk$8| #b01110000)
(= |__CPROVER_deallocated#1$wclk$8| #b01111000)
(= |__CPROVER_malloc_is_new_array#1$wclk$8| #b01111001)
(= |__CPROVER_malloc_object#1$wclk$8| #b01111010)
(= |__CPROVER_malloc_size#1$wclk$8| #b01111011)
(= |__CPROVER_memory_leak#1$wclk$8| #b01111100)
(= |__CPROVER_next_thread_id#1$wclk$8| #b01111101)
(= |__CPROVER_pipe_count#1$wclk$8| #b01111110)
(= |a$read_delayed#1$wclk$8| #b10011101)
(= |a$read_delayed_var#1$wclk$8| #b10011110)
(= |main$tmp_guard0#1$wclk$8| #b10101011)
(= |main$tmp_guard1#1$wclk$8| #b10101100)
(= |main::1::t1475!0@1#1$wclk$8| #b10110011)
(= |__CPROVER_next_thread_id#2$wclk$8| #b10110100)
(= |main::1::t1475!0@1#2$wclk$8| #b10110101)
(= |main::1::t1476!0@1#1$wclk$8| #b10110111)
(= |__CPROVER_next_thread_id#3$rclk$8| #b10111000)
(= |__CPROVER_next_thread_id#5$wclk$8| #b10111000)
(= |main::1::t1476!0@1#2$wclk$8| #b10111001)
(= |main::1::t1477!0@1#1$wclk$8| #b11001011)
(= |__CPROVER_next_thread_id#6$rclk$8| #b11001100)
(= |__CPROVER_next_thread_id#8$wclk$8| #b11001100)
(= |main::1::t1477!0@1#2$wclk$8| #b11001101)
(= |main::1::t1478!0@1#1$wclk$8| #b11001111)
(= |__CPROVER_next_thread_id#9$rclk$8| #b11011100)
(= |__CPROVER_next_thread_id#11$wclk$8| #b11011100)
(= |main::1::t1478!0@1#2$wclk$8| #b11011101)
(= |main$tmp_guard0#2$wclk$8| #b11110011)
(= |main$tmp_guard0#3$rclk$8| #b11110100)
(= |a$r_buff0_thd0#2$rclk$8| #b11110110)
(= |main$tmp_guard1#3$rclk$8| #b11110111)
(= |main$tmp_guard1#4$wclk$8| #b11110111)
(= |main$tmp_guard1#5$rclk$8| #b11111110)
(= |main$tmp_guard1#6$rclk$8| #b11111111)
(= array_of.0 @fun_13)
(= |__CPROVER_threads_exited#2| @fun_9)
(= |__CPROVER_threads_exited#4| @fun_9)
(= |__CPROVER_threads_exited#6| @fun_9)
(= |__CPROVER_threads_exited#8| @fun_13)
(function @fun_13
 (type (Array (_ BitVec 32) (_ BitVec 1)))
 (= (@fun_13 #b00000000000000000000000000000000) #b0)
 (= (@fun_13 #b01000000000000000000000000000000) #b0)
 (default #b1))
(function @fun_9
 (type (Array (_ BitVec 32) (_ BitVec 1)))
 (= (@fun_9 #b00000000000000000000000000000000) #b0)
 (default #b1))

real	0m0.037s
user	0m0.034s
sys	0m0.003s
State: AC Run_time: 0.038915157318115234